NAME: tsp35_20
COMMENT: 35-tsp problem (Padberg/Rinaldi)
TYPE: TSP
DIMENSION: 35
EDGE_WEIGHT_TYPE : EUC_2D
NODE_COORD_SECTION
1 18 36
2 38 3
3 4 28
4 27 24
5 25 34
6 28 6
7 16 5
8 19 20
9 39 4
10 34 8
11 6 10
12 36 1
13 1 6
14 10 20
15 11 29
16 17 34
17 6 35
18 39 20
19 9 30
20 14 25
21 33 29
22 38 27
23 34 9
24 23 37
25 4 11
26 40 37
27 11 17
28 29 14
29 12 29
30 11 39
31 10 6
32 13 37
33 27 38
34 30 39
35 19 15
